outputs/case_105.model.txt
regulator_performance_fee_exception = False
regulator_subcontracting_exception = False
regulator_notified_change = False
control_record_retention_period = 0
internal_control_deficiencies_improved = False
intentional_opposite_commission = False
investment_diversification_ratio = 0
damage_amount = 6294785
violation_severity_major = True
regulator_defined_minimum_period = 0
internal_control_change_completed_within_deadline = False
profit_loss_sharing_agreement_with_client = False
opposite_commission_trading = False
regulator_defined_minimum_ratio = 0
trading_through_exchange_or_broker = True
external_financial_reporting_true = True
full_trust_contract_subcontracted_or_transferred = False
reasonable_explanation_provided = False
deficiencies_severity_major = False
internal_control_system_established = True
internal_control_organization_structure_defined = True
damaging_client_interests_trading = False
data_protection_law_compliance = True
internal_control_written = True
internal_control_change_approved_and_filed = True
fraud_or_suspected_fraud_occurred = False
investment_decision_recorded = True
prohibited_behaviors_absent = True
manager_authority_and_salary_policy_defined = True
internal_control_system_continuously_reviewed = True
using_client_account_for_self_or_others = False
regulator_order_for_special_audit = False
annual_audit_plan_executed = True
business_operated_according_to_internal_control = True
unauthorized_account_transfer = False
other_regulator_special_audit_needed = False
duty_of_care = True
business_operated_according_to_articles = True
internal_control_system_design_and_execution = True
investment_decision_has_reasonable_basis = True
internal_control_system_defined = True
prohibited_behaviors_law_contract_respected = True
duty_of_honesty = True
investment_decision_recorded_flag = True
control_operation_recorded = True
internal_control_reporting_system_defined = True
prohibited_behaviors_respected = True
full_trust_investment_decision_compliance = True
business_operated_according_to_law = True
insider_trading_for_self_or_others = False
annual_audit_plan_reported = True
internal_audit_staff_adequate = True
regulator_additional_rules_compliance = True
internal_control_established_and_executed = True
confidentiality_obligation = True
internal_control_change_approved_by_board = True
internal_control_deficiencies_reported = True
internal_control_system_executed = True
internal_control_change_filed = True
manager_appointment_and_dismissal_defined = True
diversified_investment = True
liability_for_damage = False
internal_control_authority_and_responsibility_defined = True
investment_decision_reasonable = True
internal_control_self_assessed = True
monthly_review_submitted = True
investment_decision_based_on_analysis = True
duty_of_loyalty = True
business_operated_according_to_law_and_internal_control = True
penalty = False
other_behaviors_affecting_business_or_client_rights = False
full_trust_investment_diversification_compliance = True
monthly_review_report_submitted = True
good_faith_duty = True